8

Si    4.08278   4.08278   1.36093   0.000000002048104   0.000000003387881  -0.000000001165605
Si    0.00000   2.72185   2.72185   0.000000001833959  -0.000000003498058  -0.000000002882985
Si    4.08278   1.36093   4.08278   0.000000002102960  -0.000000000485169   0.000000002855101
Si    0.00000   0.00000   0.00000   0.000000001263458  -0.000000000119440   0.000000000571183
Si    1.36093   4.08278   4.08278  -0.000000001840748   0.000000003489962   0.000000002886632
Si    2.72185   2.72185   0.00000  -0.000000002023383  -0.000000003400624   0.000000001165410
Si    1.36093   1.36093   1.36093  -0.000000001255376   0.000000000120761  -0.000000000579127
Si    2.72185   0.00000   2.72185  -0.000000002129073   0.000000000504481  -0.000000002850725
