32

Zn    0.00000   0.00000  11.14106   0.000000000039615   0.000000000034838   0.000295586746700
Zn    3.93875   0.00000   5.51955   0.000000000026426   0.000000000026482   0.000759849554246
Zn    3.93875   3.97516  11.14106   0.000000000032181   0.000000000083076   0.000295586746613
Zn    0.00000   3.97516   5.51955   0.000000000020513   0.000000000084515   0.000759849555263
Cu    1.96938   1.98758   2.93063  -0.000000000108041  -0.000000000003006   0.001323881427138
Cu    5.90813   5.96274   2.93063  -0.000000000091644  -0.000000000014451   0.001323881441752
Cu    5.90813   1.98758   2.93063  -0.000000000113560  -0.000000000026472   0.001323881121335
Cu    1.96938   5.96274   2.93063  -0.000000000113319  -0.000000000034838   0.001323881140688
Cu    5.90813   1.98758   8.55214  -0.000000000095152  -0.000000000007004   0.000813129802863
Cu    1.96938   5.96274   8.55214  -0.000000000100205  -0.000000000006189   0.000813129823969
Cu    1.96938   1.98758   8.55214  -0.000000000107376  -0.000000000023938   0.000813129506904
Cu    5.90813   5.96274   8.55214  -0.000000000103498  -0.000000000029061   0.000813129511966
Sn    0.00000   0.00000   5.55857   0.000000000024210   0.000000000016224  -0.002032404323577
Sn    3.93875   0.00000  11.18008   0.000000000011132   0.000000000028976  -0.002714490223425
Sn    3.93875   3.97516   5.55857   0.000000000032020  -0.000000000035392  -0.002032404336888
Sn    0.00000   3.97516  11.18008   0.000000000034229  -0.000000000035898  -0.002714490226763
Se    0.00000   1.90270   1.49372   0.000000000112859   0.002013392228309  -0.003412769401483
Se    0.00000   6.04763   1.49372   0.000000000035440  -0.002013392323236  -0.003412769498246
Se    3.93875   1.90270   7.11523   0.000000000146923   0.001998815534658  -0.003414583851325
Se    3.93875   6.04763   7.11523   0.000000000013419  -0.001998815633134  -0.003414583910825
Se    3.93875   5.87786   1.49372   0.000000000115581   0.002013392196654  -0.003412769440739
Se    3.93875   2.07246   1.49372   0.000000000054498  -0.002013392356293  -0.003412769464801
Se    0.00000   5.87786   7.11523   0.000000000149936   0.001998815496777  -0.003414583865102
Se    0.00000   2.07246   7.11523   0.000000000016524  -0.001998815645724  -0.003414583901336
S    1.91564   0.00000   9.71188   0.001904886685831   0.000000000109057   0.003693579901247
S    5.96186   0.00000   9.71188  -0.001904886677188   0.000000000073356   0.003693579955499
S    5.85440   0.00000   4.09037   0.001901372781586   0.000000000161916   0.003695295710652
S    2.02311   0.00000   4.09037  -0.001901372782851   0.000000000068838   0.003695295794865
S    5.85440   3.97516   9.71188   0.001904886674959   0.000000000031069   0.003693579897757
S    2.02311   3.97516   9.71188  -0.001904886702816  -0.000000000000934   0.003693579952819
S    1.91564   3.97516   4.09037   0.001901372798875   0.000000000054908   0.003695295730975
S    5.96186   3.97516   4.09037  -0.001901372801651  -0.000000000050342   0.003695295795636
