32

Zn    7.87202   0.00199  11.16062   0.000495303761680   0.001621013108926   0.004215918970284
Zn    7.86394   3.93580   5.50931   0.000064663614536  -0.002925101547509  -0.000919379588253
Zn    3.93528   7.94798   5.54124  -0.001463415588490   0.000356565749292   0.003746304020264
Zn    3.94130   3.98689  11.11439   0.001629962917373  -0.000794410696346   0.001416835612500
Cu    1.98295   6.00014   8.56295   0.001069233553940   0.000912940271985   0.002521297785092
Cu    1.97066   1.98613   8.58324  -0.000930531868299  -0.000253692016896   0.003347365866158
Cu    1.94705   1.98083   2.93519  -0.001204325042479  -0.000308871699428   0.001026756527076
Cu    1.98047   5.94946   2.93213  -0.000003895007502  -0.001502179507938   0.001652590409590
Cu    5.89879   5.96062   2.92334  -0.001081674678932   0.001124771564651   0.001014270585174
Cu    5.88151   1.98263   2.94353  -0.000782097234499   0.000939335823311   0.002070970976305
Cu    5.88501   1.97823   8.56079  -0.002143403074362  -0.001867160163934   0.000996554960413
Cu    5.88295   5.96186   8.52629  -0.002624665537304   0.000210262765002  -0.001118341104238
Sn    3.95766   0.04172  11.21589   0.004369863109576   0.008584929291645   0.004496343254878
Sn    3.93059   3.98543   5.55635   0.001214035742810   0.005098962189102   0.000336367842383
Sn    7.87576   0.02642   5.52755   0.000082710690659   0.006992726550509  -0.009415857303228
Sn    0.01732   3.96965  11.20361   0.000398573906506   0.003402812179914  -0.004535272696086
Se    7.87747   5.85988   7.11613  -0.000803733141701  -0.003341867306330   0.001149313942919
Se    0.01094   2.06865   7.12035   0.001092391520327  -0.001365135063017  -0.004216097114331
Se    7.86329   1.85549   1.50708   0.000232580991698  -0.005055696348653  -0.003774746790348
Se    0.01020   6.04606   1.49044   0.000238047467684  -0.001455845879347  -0.005971551477655
Se    3.95570   5.86419   1.47495   0.002139295924701  -0.001313587617074  -0.004783158759948
Se    3.93120   2.09171   1.46133   0.001137121738945  -0.006656681781673  -0.011446551757462
Se    3.95881   1.88538   7.08857   0.002621220553727  -0.002454554847304  -0.007909328638565
Se    3.96017   6.04116   7.08458   0.003489830134547  -0.003307737812698  -0.009729525306198
S    1.90469   0.01409   9.73108  -0.002229201456216   0.000871562092936   0.001663521376464
S    5.94954   0.00359   9.72152  -0.003120360105793   0.001561895751167   0.004378222512371
S    1.89897   3.97773   4.08509   0.000072258102367   0.001470974517440   0.003301330606365
S    5.94736   3.96079   4.08707  -0.002477499858730  -0.001410138939841   0.004276842558803
S    5.85121   7.93448   4.07721   0.003879355849986  -0.000939436607758   0.003305193505098
S    2.04159   7.95007   4.10343  -0.002007233204831   0.000979467620520   0.006424498096622
S    5.87465   3.98241   9.75265   0.003262766960290   0.000736915911702   0.009711114397806
S    2.00282   3.98680   9.70087  -0.005492815785004  -0.000494755850030   0.003773515540901
