864

Zn -0.00548 -7.94833 -0.08240
Zn -0.01357 -4.01452 -5.73371
Zn -3.94223 -0.00234 -5.70178
Zn -3.93620 -3.96344 -0.12863
Cu -5.89455 -1.95019 -2.68007
Cu -5.90684 -5.96420 -2.65978
Cu -5.93045 -5.96950 -8.30783
Cu -5.89703 -2.00086 -8.31089
Cu -1.97872 -1.98971 -8.31968
Cu -1.99599 -5.96770 -8.29949
Cu -1.99250 -5.97210 -2.68223
Cu -1.99456 -1.98846 -2.71673
Sn -3.91984 -7.90860 -0.02714
Sn -3.94692 -3.96489 -5.68667
Sn -0.00174 -7.92390 -5.71548
Sn -7.86018 -3.98068 -0.03941
Se -0.00004 -2.09045 -4.12689
Se -7.86657 -5.88168 -4.12267
Se -0.01422 -6.09484 -9.73594
Se -7.86730 -1.90427 -9.75258
Se -3.92181 -2.08614 -9.76808
Se -3.94631 -5.85861 -9.78169
Se -3.91870 -6.06494 -4.15445
Se -3.91733 -1.90917 -4.15844
S -5.97282 -7.93624 -1.51194
S -1.92797 -7.94673 -1.52150
S -5.97854 -3.97260 -7.15793
S -1.93015 -3.98954 -7.15596
S -2.02629 -0.01584 -7.16582
S -5.83591 -0.00026 -7.13959
S -2.00285 -3.96792 -1.49037
S -5.87468 -3.96353 -1.54215
Zn -0.00548 -7.94833 11.16062
Zn -0.01357 -4.01452  5.50931
Zn -3.94223 -0.00234  5.54124
Zn -3.93620 -3.96344 11.11439
Cu -5.89455 -1.95019  8.56295
Cu -5.90684 -5.96420  8.58324
Cu -5.93045 -5.96950  2.93519
Cu -5.89703 -2.00086  2.93213
Cu -1.97872 -1.98971  2.92334
Cu -1.99599 -5.96770  2.94353
Cu -1.99250 -5.97210  8.56079
Cu -1.99456 -1.98846  8.52629
Sn -3.91984 -7.90860 11.21589
Sn -3.94692 -3.96489  5.55635
Sn -0.00174 -7.92390  5.52755
Sn -7.86018 -3.98068 11.20361
Se -0.00004 -2.09045  7.11613
Se -7.86657 -5.88168  7.12035
Se -0.01422 -6.09484  1.50708
Se -7.86730 -1.90427  1.49044
Se -3.92181 -2.08614  1.47495
Se -3.94631 -5.85861  1.46133
Se -3.91870 -6.06494  7.08857
Se -3.91733 -1.90917  7.08458
S -5.97282 -7.93624  9.73108
S -1.92797 -7.94673  9.72152
S -5.97854 -3.97260  4.08509
S -1.93015 -3.98954  4.08707
S -2.02629 -0.01584  4.07721
S -5.83591 -0.00026  4.10343
S -2.00285 -3.96792  9.75265
S -5.87468 -3.96353  9.70087
Zn -0.00548 -7.94833 22.40365
Zn -0.01357 -4.01452 16.75233
Zn -3.94223 -0.00234 16.78426
Zn -3.93620 -3.96344 22.35742
Cu -5.89455 -1.95019 19.80598
Cu -5.90684 -5.96420 19.82626
Cu -5.93045 -5.96950 14.17821
Cu -5.89703 -2.00086 14.17515
Cu -1.97872 -1.98971 14.16637
Cu -1.99599 -5.96770 14.18655
Cu -1.99250 -5.97210 19.80381
Cu -1.99456 -1.98846 19.76932
Sn -3.91984 -7.90860 22.45891
Sn -3.94692 -3.96489 16.79937
Sn -0.00174 -7.92390 16.77057
Sn -7.86018 -3.98068 22.44663
Se -0.00004 -2.09045 18.35915
Se -7.86657 -5.88168 18.36337
Se -0.01422 -6.09484 12.75010
Se -7.86730 -1.90427 12.73347
Se -3.92181 -2.08614 12.71797
Se -3.94631 -5.85861 12.70436
Se -3.91870 -6.06494 18.33159
Se -3.91733 -1.90917 18.32760
S -5.97282 -7.93624 20.97410
S -1.92797 -7.94673 20.96454
S -5.97854 -3.97260 15.32811
S -1.93015 -3.98954 15.33009
S -2.02629 -0.01584 15.32023
S -5.83591 -0.00026 15.34645
S -2.00285 -3.96792 20.99568
S -5.87468 -3.96353 20.94390
Zn -0.00548  0.00199 -0.08240
Zn -0.01357  3.93580 -5.73371
Zn -3.94223  7.94798 -5.70178
Zn -3.93620  3.98689 -0.12863
Cu -5.89455  6.00014 -2.68007
Cu -5.90684  1.98613 -2.65978
Cu -5.93045  1.98083 -8.30783
Cu -5.89703  5.94946 -8.31089
Cu -1.97872  5.96062 -8.31968
Cu -1.99599  1.98263 -8.29949
Cu -1.99250  1.97823 -2.68223
Cu -1.99456  5.96186 -2.71673
Sn -3.91984  0.04172 -0.02714
Sn -3.94692  3.98543 -5.68667
Sn -0.00174  0.02642 -5.71548
Sn -7.86018  3.96965 -0.03941
Se -0.00004  5.85988 -4.12689
Se -7.86657  2.06865 -4.12267
Se -0.01422  1.85549 -9.73594
Se -7.86730  6.04606 -9.75258
Se -3.92181  5.86419 -9.76808
Se -3.94631  2.09171 -9.78169
Se -3.91870  1.88538 -4.15445
Se -3.91733  6.04116 -4.15844
S -5.97282  0.01409 -1.51194
S -1.92797  0.00359 -1.52150
S -5.97854  3.97773 -7.15793
S -1.93015  3.96079 -7.15596
S -2.02629  7.93448 -7.16582
S -5.83591  7.95007 -7.13959
S -2.00285  3.98241 -1.49037
S -5.87468  3.98680 -1.54215
Zn -0.00548  0.00199 11.16062
Zn -0.01357  3.93580  5.50931
Zn -3.94223  7.94798  5.54124
Zn -3.93620  3.98689 11.11439
Cu -5.89455  6.00014  8.56295
Cu -5.90684  1.98613  8.58324
Cu -5.93045  1.98083  2.93519
Cu -5.89703  5.94946  2.93213
Cu -1.97872  5.96062  2.92334
Cu -1.99599  1.98263  2.94353
Cu -1.99250  1.97823  8.56079
Cu -1.99456  5.96186  8.52629
Sn -3.91984  0.04172 11.21589
Sn -3.94692  3.98543  5.55635
Sn -0.00174  0.02642  5.52755
Sn -7.86018  3.96965 11.20361
Se -0.00004  5.85988  7.11613
Se -7.86657  2.06865  7.12035
Se -0.01422  1.85549  1.50708
Se -7.86730  6.04606  1.49044
Se -3.92181  5.86419  1.47495
Se -3.94631  2.09171  1.46133
Se -3.91870  1.88538  7.08857
Se -3.91733  6.04116  7.08458
S -5.97282  0.01409  9.73108
S -1.92797  0.00359  9.72152
S -5.97854  3.97773  4.08509
S -1.93015  3.96079  4.08707
S -2.02629  7.93448  4.07721
S -5.83591  7.95007  4.10343
S -2.00285  3.98241  9.75265
S -5.87468  3.98680  9.70087
Zn -0.00548  0.00199 22.40365
Zn -0.01357  3.93580 16.75233
Zn -3.94223  7.94798 16.78426
Zn -3.93620  3.98689 22.35742
Cu -5.89455  6.00014 19.80598
Cu -5.90684  1.98613 19.82626
Cu -5.93045  1.98083 14.17821
Cu -5.89703  5.94946 14.17515
Cu -1.97872  5.96062 14.16637
Cu -1.99599  1.98263 14.18655
Cu -1.99250  1.97823 19.80381
Cu -1.99456  5.96186 19.76932
Sn -3.91984  0.04172 22.45891
Sn -3.94692  3.98543 16.79937
Sn -0.00174  0.02642 16.77057
Sn -7.86018  3.96965 22.44663
Se -0.00004  5.85988 18.35915
Se -7.86657  2.06865 18.36337
Se -0.01422  1.85549 12.75010
Se -7.86730  6.04606 12.73347
Se -3.92181  5.86419 12.71797
Se -3.94631  2.09171 12.70436
Se -3.91870  1.88538 18.33159
Se -3.91733  6.04116 18.32760
S -5.97282  0.01409 20.97410
S -1.92797  0.00359 20.96454
S -5.97854  3.97773 15.32811
S -1.93015  3.96079 15.33009
S -2.02629  7.93448 15.32023
S -5.83591  7.95007 15.34645
S -2.00285  3.98241 20.99568
S -5.87468  3.98680 20.94390
Zn -0.00548  7.95232 -0.08240
Zn -0.01357 11.88613 -5.73371
Zn -3.94223 15.89831 -5.70178
Zn -3.93620 11.93721 -0.12863
Cu -5.89455 13.95046 -2.68007
Cu -5.90684  9.93645 -2.65978
Cu -5.93045  9.93115 -8.30783
Cu -5.89703 13.89979 -8.31089
Cu -1.97872 13.91095 -8.31968
Cu -1.99599  9.93295 -8.29949
Cu -1.99250  9.92855 -2.68223
Cu -1.99456 13.91219 -2.71673
Sn -3.91984  7.99205 -0.02714
Sn -3.94692 11.93576 -5.68667
Sn -0.00174  7.97675 -5.71548
Sn -7.86018 11.91998 -0.03941
Se -0.00004 13.81020 -4.12689
Se -7.86657 10.01897 -4.12267
Se -0.01422  9.80582 -9.73594
Se -7.86730 13.99638 -9.75258
Se -3.92181 13.81451 -9.76808
Se -3.94631 10.04204 -9.78169
Se -3.91870  9.83571 -4.15445
Se -3.91733 13.99148 -4.15844
S -5.97282  7.96441 -1.51194
S -1.92797  7.95392 -1.52150
S -5.97854 11.92806 -7.15793
S -1.93015 11.91111 -7.15596
S -2.02629 15.88481 -7.16582
S -5.83591 15.90040 -7.13959
S -2.00285 11.93273 -1.49037
S -5.87468 11.93712 -1.54215
Zn -0.00548  7.95232 11.16062
Zn -0.01357 11.88613  5.50931
Zn -3.94223 15.89831  5.54124
Zn -3.93620 11.93721 11.11439
Cu -5.89455 13.95046  8.56295
Cu -5.90684  9.93645  8.58324
Cu -5.93045  9.93115  2.93519
Cu -5.89703 13.89979  2.93213
Cu -1.97872 13.91095  2.92334
Cu -1.99599  9.93295  2.94353
Cu -1.99250  9.92855  8.56079
Cu -1.99456 13.91219  8.52629
Sn -3.91984  7.99205 11.21589
Sn -3.94692 11.93576  5.55635
Sn -0.00174  7.97675  5.52755
Sn -7.86018 11.91998 11.20361
Se -0.00004 13.81020  7.11613
Se -7.86657 10.01897  7.12035
Se -0.01422  9.80582  1.50708
Se -7.86730 13.99638  1.49044
Se -3.92181 13.81451  1.47495
Se -3.94631 10.04204  1.46133
Se -3.91870  9.83571  7.08857
Se -3.91733 13.99148  7.08458
S -5.97282  7.96441  9.73108
S -1.92797  7.95392  9.72152
S -5.97854 11.92806  4.08509
S -1.93015 11.91111  4.08707
S -2.02629 15.88481  4.07721
S -5.83591 15.90040  4.10343
S -2.00285 11.93273  9.75265
S -5.87468 11.93712  9.70087
Zn -0.00548  7.95232 22.40365
Zn -0.01357 11.88613 16.75233
Zn -3.94223 15.89831 16.78426
Zn -3.93620 11.93721 22.35742
Cu -5.89455 13.95046 19.80598
Cu -5.90684  9.93645 19.82626
Cu -5.93045  9.93115 14.17821
Cu -5.89703 13.89979 14.17515
Cu -1.97872 13.91095 14.16637
Cu -1.99599  9.93295 14.18655
Cu -1.99250  9.92855 19.80381
Cu -1.99456 13.91219 19.76932
Sn -3.91984  7.99205 22.45891
Sn -3.94692 11.93576 16.79937
Sn -0.00174  7.97675 16.77057
Sn -7.86018 11.91998 22.44663
Se -0.00004 13.81020 18.35915
Se -7.86657 10.01897 18.36337
Se -0.01422  9.80582 12.75010
Se -7.86730 13.99638 12.73347
Se -3.92181 13.81451 12.71797
Se -3.94631 10.04204 12.70436
Se -3.91870  9.83571 18.33159
Se -3.91733 13.99148 18.32760
S -5.97282  7.96441 20.97410
S -1.92797  7.95392 20.96454
S -5.97854 11.92806 15.32811
S -1.93015 11.91111 15.33009
S -2.02629 15.88481 15.32023
S -5.83591 15.90040 15.34645
S -2.00285 11.93273 20.99568
S -5.87468 11.93712 20.94390
Zn  7.87202 -7.94833 -0.08240
Zn  7.86394 -4.01452 -5.73371
Zn  3.93528 -0.00234 -5.70178
Zn  3.94130 -3.96344 -0.12863
Cu  1.98295 -1.95019 -2.68007
Cu  1.97066 -5.96420 -2.65978
Cu  1.94705 -5.96950 -8.30783
Cu  1.98047 -2.00086 -8.31089
Cu  5.89879 -1.98971 -8.31968
Cu  5.88151 -5.96770 -8.29949
Cu  5.88501 -5.97210 -2.68223
Cu  5.88295 -1.98846 -2.71673
Sn  3.95766 -7.90860 -0.02714
Sn  3.93059 -3.96489 -5.68667
Sn  7.87576 -7.92390 -5.71548
Sn  0.01732 -3.98068 -0.03941
Se  7.87747 -2.09045 -4.12689
Se  0.01094 -5.88168 -4.12267
Se  7.86329 -6.09484 -9.73594
Se  0.01020 -1.90427 -9.75258
Se  3.95570 -2.08614 -9.76808
Se  3.93120 -5.85861 -9.78169
Se  3.95881 -6.06494 -4.15445
Se  3.96017 -1.90917 -4.15844
S  1.90469 -7.93624 -1.51194
S  5.94954 -7.94673 -1.52150
S  1.89897 -3.97260 -7.15793
S  5.94736 -3.98954 -7.15596
S  5.85121 -0.01584 -7.16582
S  2.04159 -0.00026 -7.13959
S  5.87465 -3.96792 -1.49037
S  2.00282 -3.96353 -1.54215
Zn  7.87202 -7.94833 11.16062
Zn  7.86394 -4.01452  5.50931
Zn  3.93528 -0.00234  5.54124
Zn  3.94130 -3.96344 11.11439
Cu  1.98295 -1.95019  8.56295
Cu  1.97066 -5.96420  8.58324
Cu  1.94705 -5.96950  2.93519
Cu  1.98047 -2.00086  2.93213
Cu  5.89879 -1.98971  2.92334
Cu  5.88151 -5.96770  2.94353
Cu  5.88501 -5.97210  8.56079
Cu  5.88295 -1.98846  8.52629
Sn  3.95766 -7.90860 11.21589
Sn  3.93059 -3.96489  5.55635
Sn  7.87576 -7.92390  5.52755
Sn  0.01732 -3.98068 11.20361
Se  7.87747 -2.09045  7.11613
Se  0.01094 -5.88168  7.12035
Se  7.86329 -6.09484  1.50708
Se  0.01020 -1.90427  1.49044
Se  3.95570 -2.08614  1.47495
Se  3.93120 -5.85861  1.46133
Se  3.95881 -6.06494  7.08857
Se  3.96017 -1.90917  7.08458
S  1.90469 -7.93624  9.73108
S  5.94954 -7.94673  9.72152
S  1.89897 -3.97260  4.08509
S  5.94736 -3.98954  4.08707
S  5.85121 -0.01584  4.07721
S  2.04159 -0.00026  4.10343
S  5.87465 -3.96792  9.75265
S  2.00282 -3.96353  9.70087
Zn  7.87202 -7.94833 22.40365
Zn  7.86394 -4.01452 16.75233
Zn  3.93528 -0.00234 16.78426
Zn  3.94130 -3.96344 22.35742
Cu  1.98295 -1.95019 19.80598
Cu  1.97066 -5.96420 19.82626
Cu  1.94705 -5.96950 14.17821
Cu  1.98047 -2.00086 14.17515
Cu  5.89879 -1.98971 14.16637
Cu  5.88151 -5.96770 14.18655
Cu  5.88501 -5.97210 19.80381
Cu  5.88295 -1.98846 19.76932
Sn  3.95766 -7.90860 22.45891
Sn  3.93059 -3.96489 16.79937
Sn  7.87576 -7.92390 16.77057
Sn  0.01732 -3.98068 22.44663
Se  7.87747 -2.09045 18.35915
Se  0.01094 -5.88168 18.36337
Se  7.86329 -6.09484 12.75010
Se  0.01020 -1.90427 12.73347
Se  3.95570 -2.08614 12.71797
Se  3.93120 -5.85861 12.70436
Se  3.95881 -6.06494 18.33159
Se  3.96017 -1.90917 18.32760
S  1.90469 -7.93624 20.97410
S  5.94954 -7.94673 20.96454
S  1.89897 -3.97260 15.32811
S  5.94736 -3.98954 15.33009
S  5.85121 -0.01584 15.32023
S  2.04159 -0.00026 15.34645
S  5.87465 -3.96792 20.99568
S  2.00282 -3.96353 20.94390
Zn  7.87202  0.00199 -0.08240
Zn  7.86394  3.93580 -5.73371
Zn  3.93528  7.94798 -5.70178
Zn  3.94130  3.98689 -0.12863
Cu  1.98295  6.00014 -2.68007
Cu  1.97066  1.98613 -2.65978
Cu  1.94705  1.98083 -8.30783
Cu  1.98047  5.94946 -8.31089
Cu  5.89879  5.96062 -8.31968
Cu  5.88151  1.98263 -8.29949
Cu  5.88501  1.97823 -2.68223
Cu  5.88295  5.96186 -2.71673
Sn  3.95766  0.04172 -0.02714
Sn  3.93059  3.98543 -5.68667
Sn  7.87576  0.02642 -5.71548
Sn  0.01732  3.96965 -0.03941
Se  7.87747  5.85988 -4.12689
Se  0.01094  2.06865 -4.12267
Se  7.86329  1.85549 -9.73594
Se  0.01020  6.04606 -9.75258
Se  3.95570  5.86419 -9.76808
Se  3.93120  2.09171 -9.78169
Se  3.95881  1.88538 -4.15445
Se  3.96017  6.04116 -4.15844
S  1.90469  0.01409 -1.51194
S  5.94954  0.00359 -1.52150
S  1.89897  3.97773 -7.15793
S  5.94736  3.96079 -7.15596
S  5.85121  7.93448 -7.16582
S  2.04159  7.95007 -7.13959
S  5.87465  3.98241 -1.49037
S  2.00282  3.98680 -1.54215
Zn  7.87202  0.00199 11.16062
Zn  7.86394  3.93580  5.50931
Zn  3.93528  7.94798  5.54124
Zn  3.94130  3.98689 11.11439
Cu  1.98295  6.00014  8.56295
Cu  1.97066  1.98613  8.58324
Cu  1.94705  1.98083  2.93519
Cu  1.98047  5.94946  2.93213
Cu  5.89879  5.96062  2.92334
Cu  5.88151  1.98263  2.94353
Cu  5.88501  1.97823  8.56079
Cu  5.88295  5.96186  8.52629
Sn  3.95766  0.04172 11.21589
Sn  3.93059  3.98543  5.55635
Sn  7.87576  0.02642  5.52755
Sn  0.01732  3.96965 11.20361
Se  7.87747  5.85988  7.11613
Se  0.01094  2.06865  7.12035
Se  7.86329  1.85549  1.50708
Se  0.01020  6.04606  1.49044
Se  3.95570  5.86419  1.47495
Se  3.93120  2.09171  1.46133
Se  3.95881  1.88538  7.08857
Se  3.96017  6.04116  7.08458
S  1.90469  0.01409  9.73108
S  5.94954  0.00359  9.72152
S  1.89897  3.97773  4.08509
S  5.94736  3.96079  4.08707
S  5.85121  7.93448  4.07721
S  2.04159  7.95007  4.10343
S  5.87465  3.98241  9.75265
S  2.00282  3.98680  9.70087
Zn  7.87202  0.00199 22.40365
Zn  7.86394  3.93580 16.75233
Zn  3.93528  7.94798 16.78426
Zn  3.94130  3.98689 22.35742
Cu  1.98295  6.00014 19.80598
Cu  1.97066  1.98613 19.82626
Cu  1.94705  1.98083 14.17821
Cu  1.98047  5.94946 14.17515
Cu  5.89879  5.96062 14.16637
Cu  5.88151  1.98263 14.18655
Cu  5.88501  1.97823 19.80381
Cu  5.88295  5.96186 19.76932
Sn  3.95766  0.04172 22.45891
Sn  3.93059  3.98543 16.79937
Sn  7.87576  0.02642 16.77057
Sn  0.01732  3.96965 22.44663
Se  7.87747  5.85988 18.35915
Se  0.01094  2.06865 18.36337
Se  7.86329  1.85549 12.75010
Se  0.01020  6.04606 12.73347
Se  3.95570  5.86419 12.71797
Se  3.93120  2.09171 12.70436
Se  3.95881  1.88538 18.33159
Se  3.96017  6.04116 18.32760
S  1.90469  0.01409 20.97410
S  5.94954  0.00359 20.96454
S  1.89897  3.97773 15.32811
S  5.94736  3.96079 15.33009
S  5.85121  7.93448 15.32023
S  2.04159  7.95007 15.34645
S  5.87465  3.98241 20.99568
S  2.00282  3.98680 20.94390
Zn  7.87202  7.95232 -0.08240
Zn  7.86394 11.88613 -5.73371
Zn  3.93528 15.89831 -5.70178
Zn  3.94130 11.93721 -0.12863
Cu  1.98295 13.95046 -2.68007
Cu  1.97066  9.93645 -2.65978
Cu  1.94705  9.93115 -8.30783
Cu  1.98047 13.89979 -8.31089
Cu  5.89879 13.91095 -8.31968
Cu  5.88151  9.93295 -8.29949
Cu  5.88501  9.92855 -2.68223
Cu  5.88295 13.91219 -2.71673
Sn  3.95766  7.99205 -0.02714
Sn  3.93059 11.93576 -5.68667
Sn  7.87576  7.97675 -5.71548
Sn  0.01732 11.91998 -0.03941
Se  7.87747 13.81020 -4.12689
Se  0.01094 10.01897 -4.12267
Se  7.86329  9.80582 -9.73594
Se  0.01020 13.99638 -9.75258
Se  3.95570 13.81451 -9.76808
Se  3.93120 10.04204 -9.78169
Se  3.95881  9.83571 -4.15445
Se  3.96017 13.99148 -4.15844
S  1.90469  7.96441 -1.51194
S  5.94954  7.95392 -1.52150
S  1.89897 11.92806 -7.15793
S  5.94736 11.91111 -7.15596
S  5.85121 15.88481 -7.16582
S  2.04159 15.90040 -7.13959
S  5.87465 11.93273 -1.49037
S  2.00282 11.93712 -1.54215
Zn  7.87202  7.95232 11.16062
Zn  7.86394 11.88613  5.50931
Zn  3.93528 15.89831  5.54124
Zn  3.94130 11.93721 11.11439
Cu  1.98295 13.95046  8.56295
Cu  1.97066  9.93645  8.58324
Cu  1.94705  9.93115  2.93519
Cu  1.98047 13.89979  2.93213
Cu  5.89879 13.91095  2.92334
Cu  5.88151  9.93295  2.94353
Cu  5.88501  9.92855  8.56079
Cu  5.88295 13.91219  8.52629
Sn  3.95766  7.99205 11.21589
Sn  3.93059 11.93576  5.55635
Sn  7.87576  7.97675  5.52755
Sn  0.01732 11.91998 11.20361
Se  7.87747 13.81020  7.11613
Se  0.01094 10.01897  7.12035
Se  7.86329  9.80582  1.50708
Se  0.01020 13.99638  1.49044
Se  3.95570 13.81451  1.47495
Se  3.93120 10.04204  1.46133
Se  3.95881  9.83571  7.08857
Se  3.96017 13.99148  7.08458
S  1.90469  7.96441  9.73108
S  5.94954  7.95392  9.72152
S  1.89897 11.92806  4.08509
S  5.94736 11.91111  4.08707
S  5.85121 15.88481  4.07721
S  2.04159 15.90040  4.10343
S  5.87465 11.93273  9.75265
S  2.00282 11.93712  9.70087
Zn  7.87202  7.95232 22.40365
Zn  7.86394 11.88613 16.75233
Zn  3.93528 15.89831 16.78426
Zn  3.94130 11.93721 22.35742
Cu  1.98295 13.95046 19.80598
Cu  1.97066  9.93645 19.82626
Cu  1.94705  9.93115 14.17821
Cu  1.98047 13.89979 14.17515
Cu  5.89879 13.91095 14.16637
Cu  5.88151  9.93295 14.18655
Cu  5.88501  9.92855 19.80381
Cu  5.88295 13.91219 19.76932
Sn  3.95766  7.99205 22.45891
Sn  3.93059 11.93576 16.79937
Sn  7.87576  7.97675 16.77057
Sn  0.01732 11.91998 22.44663
Se  7.87747 13.81020 18.35915
Se  0.01094 10.01897 18.36337
Se  7.86329  9.80582 12.75010
Se  0.01020 13.99638 12.73347
Se  3.95570 13.81451 12.71797
Se  3.93120 10.04204 12.70436
Se  3.95881  9.83571 18.33159
Se  3.96017 13.99148 18.32760
S  1.90469  7.96441 20.97410
S  5.94954  7.95392 20.96454
S  1.89897 11.92806 15.32811
S  5.94736 11.91111 15.33009
S  5.85121 15.88481 15.32023
S  2.04159 15.90040 15.34645
S  5.87465 11.93273 20.99568
S  2.00282 11.93712 20.94390
Zn 15.74953 -7.94833 -0.08240
Zn 15.74144 -4.01452 -5.73371
Zn 11.81278 -0.00234 -5.70178
Zn 11.81881 -3.96344 -0.12863
Cu  9.86046 -1.95019 -2.68007
Cu  9.84817 -5.96420 -2.65978
Cu  9.82455 -5.96950 -8.30783
Cu  9.85798 -2.00086 -8.31089
Cu 13.77629 -1.98971 -8.31968
Cu 13.75902 -5.96770 -8.29949
Cu 13.76251 -5.97210 -2.68223
Cu 13.76045 -1.98846 -2.71673
Sn 11.83517 -7.90860 -0.02714
Sn 11.80809 -3.96489 -5.68667
Sn 15.75327 -7.92390 -5.71548
Sn  7.89483 -3.98068 -0.03941
Se 15.75497 -2.09045 -4.12689
Se  7.88844 -5.88168 -4.12267
Se 15.74079 -6.09484 -9.73594
Se  7.88770 -1.90427 -9.75258
Se 11.83320 -2.08614 -9.76808
Se 11.80870 -5.85861 -9.78169
Se 11.83631 -6.06494 -4.15445
Se 11.83767 -1.90917 -4.15844
S  9.78219 -7.93624 -1.51194
S 13.82704 -7.94673 -1.52150
S  9.77647 -3.97260 -7.15793
S 13.82486 -3.98954 -7.15596
S 13.72871 -0.01584 -7.16582
S  9.91910 -0.00026 -7.13959
S 13.75215 -3.96792 -1.49037
S  9.88032 -3.96353 -1.54215
Zn 15.74953 -7.94833 11.16062
Zn 15.74144 -4.01452  5.50931
Zn 11.81278 -0.00234  5.54124
Zn 11.81881 -3.96344 11.11439
Cu  9.86046 -1.95019  8.56295
Cu  9.84817 -5.96420  8.58324
Cu  9.82455 -5.96950  2.93519
Cu  9.85798 -2.00086  2.93213
Cu 13.77629 -1.98971  2.92334
Cu 13.75902 -5.96770  2.94353
Cu 13.76251 -5.97210  8.56079
Cu 13.76045 -1.98846  8.52629
Sn 11.83517 -7.90860 11.21589
Sn 11.80809 -3.96489  5.55635
Sn 15.75327 -7.92390  5.52755
Sn  7.89483 -3.98068 11.20361
Se 15.75497 -2.09045  7.11613
Se  7.88844 -5.88168  7.12035
Se 15.74079 -6.09484  1.50708
Se  7.88770 -1.90427  1.49044
Se 11.83320 -2.08614  1.47495
Se 11.80870 -5.85861  1.46133
Se 11.83631 -6.06494  7.08857
Se 11.83767 -1.90917  7.08458
S  9.78219 -7.93624  9.73108
S 13.82704 -7.94673  9.72152
S  9.77647 -3.97260  4.08509
S 13.82486 -3.98954  4.08707
S 13.72871 -0.01584  4.07721
S  9.91910 -0.00026  4.10343
S 13.75215 -3.96792  9.75265
S  9.88032 -3.96353  9.70087
Zn 15.74953 -7.94833 22.40365
Zn 15.74144 -4.01452 16.75233
Zn 11.81278 -0.00234 16.78426
Zn 11.81881 -3.96344 22.35742
Cu  9.86046 -1.95019 19.80598
Cu  9.84817 -5.96420 19.82626
Cu  9.82455 -5.96950 14.17821
Cu  9.85798 -2.00086 14.17515
Cu 13.77629 -1.98971 14.16637
Cu 13.75902 -5.96770 14.18655
Cu 13.76251 -5.97210 19.80381
Cu 13.76045 -1.98846 19.76932
Sn 11.83517 -7.90860 22.45891
Sn 11.80809 -3.96489 16.79937
Sn 15.75327 -7.92390 16.77057
Sn  7.89483 -3.98068 22.44663
Se 15.75497 -2.09045 18.35915
Se  7.88844 -5.88168 18.36337
Se 15.74079 -6.09484 12.75010
Se  7.88770 -1.90427 12.73347
Se 11.83320 -2.08614 12.71797
Se 11.80870 -5.85861 12.70436
Se 11.83631 -6.06494 18.33159
Se 11.83767 -1.90917 18.32760
S  9.78219 -7.93624 20.97410
S 13.82704 -7.94673 20.96454
S  9.77647 -3.97260 15.32811
S 13.82486 -3.98954 15.33009
S 13.72871 -0.01584 15.32023
S  9.91910 -0.00026 15.34645
S 13.75215 -3.96792 20.99568
S  9.88032 -3.96353 20.94390
Zn 15.74953  0.00199 -0.08240
Zn 15.74144  3.93580 -5.73371
Zn 11.81278  7.94798 -5.70178
Zn 11.81881  3.98689 -0.12863
Cu  9.86046  6.00014 -2.68007
Cu  9.84817  1.98613 -2.65978
Cu  9.82455  1.98083 -8.30783
Cu  9.85798  5.94946 -8.31089
Cu 13.77629  5.96062 -8.31968
Cu 13.75902  1.98263 -8.29949
Cu 13.76251  1.97823 -2.68223
Cu 13.76045  5.96186 -2.71673
Sn 11.83517  0.04172 -0.02714
Sn 11.80809  3.98543 -5.68667
Sn 15.75327  0.02642 -5.71548
Sn  7.89483  3.96965 -0.03941
Se 15.75497  5.85988 -4.12689
Se  7.88844  2.06865 -4.12267
Se 15.74079  1.85549 -9.73594
Se  7.88770  6.04606 -9.75258
Se 11.83320  5.86419 -9.76808
Se 11.80870  2.09171 -9.78169
Se 11.83631  1.88538 -4.15445
Se 11.83767  6.04116 -4.15844
S  9.78219  0.01409 -1.51194
S 13.82704  0.00359 -1.52150
S  9.77647  3.97773 -7.15793
S 13.82486  3.96079 -7.15596
S 13.72871  7.93448 -7.16582
S  9.91910  7.95007 -7.13959
S 13.75215  3.98241 -1.49037
S  9.88032  3.98680 -1.54215
Zn 15.74953  0.00199 11.16062
Zn 15.74144  3.93580  5.50931
Zn 11.81278  7.94798  5.54124
Zn 11.81881  3.98689 11.11439
Cu  9.86046  6.00014  8.56295
Cu  9.84817  1.98613  8.58324
Cu  9.82455  1.98083  2.93519
Cu  9.85798  5.94946  2.93213
Cu 13.77629  5.96062  2.92334
Cu 13.75902  1.98263  2.94353
Cu 13.76251  1.97823  8.56079
Cu 13.76045  5.96186  8.52629
Sn 11.83517  0.04172 11.21589
Sn 11.80809  3.98543  5.55635
Sn 15.75327  0.02642  5.52755
Sn  7.89483  3.96965 11.20361
Se 15.75497  5.85988  7.11613
Se  7.88844  2.06865  7.12035
Se 15.74079  1.85549  1.50708
Se  7.88770  6.04606  1.49044
Se 11.83320  5.86419  1.47495
Se 11.80870  2.09171  1.46133
Se 11.83631  1.88538  7.08857
Se 11.83767  6.04116  7.08458
S  9.78219  0.01409  9.73108
S 13.82704  0.00359  9.72152
S  9.77647  3.97773  4.08509
S 13.82486  3.96079  4.08707
S 13.72871  7.93448  4.07721
S  9.91910  7.95007  4.10343
S 13.75215  3.98241  9.75265
S  9.88032  3.98680  9.70087
Zn 15.74953  0.00199 22.40365
Zn 15.74144  3.93580 16.75233
Zn 11.81278  7.94798 16.78426
Zn 11.81881  3.98689 22.35742
Cu  9.86046  6.00014 19.80598
Cu  9.84817  1.98613 19.82626
Cu  9.82455  1.98083 14.17821
Cu  9.85798  5.94946 14.17515
Cu 13.77629  5.96062 14.16637
Cu 13.75902  1.98263 14.18655
Cu 13.76251  1.97823 19.80381
Cu 13.76045  5.96186 19.76932
Sn 11.83517  0.04172 22.45891
Sn 11.80809  3.98543 16.79937
Sn 15.75327  0.02642 16.77057
Sn  7.89483  3.96965 22.44663
Se 15.75497  5.85988 18.35915
Se  7.88844  2.06865 18.36337
Se 15.74079  1.85549 12.75010
Se  7.88770  6.04606 12.73347
Se 11.83320  5.86419 12.71797
Se 11.80870  2.09171 12.70436
Se 11.83631  1.88538 18.33159
Se 11.83767  6.04116 18.32760
S  9.78219  0.01409 20.97410
S 13.82704  0.00359 20.96454
S  9.77647  3.97773 15.32811
S 13.82486  3.96079 15.33009
S 13.72871  7.93448 15.32023
S  9.91910  7.95007 15.34645
S 13.75215  3.98241 20.99568
S  9.88032  3.98680 20.94390
Zn 15.74953  7.95232 -0.08240
Zn 15.74144 11.88613 -5.73371
Zn 11.81278 15.89831 -5.70178
Zn 11.81881 11.93721 -0.12863
Cu  9.86046 13.95046 -2.68007
Cu  9.84817  9.93645 -2.65978
Cu  9.82455  9.93115 -8.30783
Cu  9.85798 13.89979 -8.31089
Cu 13.77629 13.91095 -8.31968
Cu 13.75902  9.93295 -8.29949
Cu 13.76251  9.92855 -2.68223
Cu 13.76045 13.91219 -2.71673
Sn 11.83517  7.99205 -0.02714
Sn 11.80809 11.93576 -5.68667
Sn 15.75327  7.97675 -5.71548
Sn  7.89483 11.91998 -0.03941
Se 15.75497 13.81020 -4.12689
Se  7.88844 10.01897 -4.12267
Se 15.74079  9.80582 -9.73594
Se  7.88770 13.99638 -9.75258
Se 11.83320 13.81451 -9.76808
Se 11.80870 10.04204 -9.78169
Se 11.83631  9.83571 -4.15445
Se 11.83767 13.99148 -4.15844
S  9.78219  7.96441 -1.51194
S 13.82704  7.95392 -1.52150
S  9.77647 11.92806 -7.15793
S 13.82486 11.91111 -7.15596
S 13.72871 15.88481 -7.16582
S  9.91910 15.90040 -7.13959
S 13.75215 11.93273 -1.49037
S  9.88032 11.93712 -1.54215
Zn 15.74953  7.95232 11.16062
Zn 15.74144 11.88613  5.50931
Zn 11.81278 15.89831  5.54124
Zn 11.81881 11.93721 11.11439
Cu  9.86046 13.95046  8.56295
Cu  9.84817  9.93645  8.58324
Cu  9.82455  9.93115  2.93519
Cu  9.85798 13.89979  2.93213
Cu 13.77629 13.91095  2.92334
Cu 13.75902  9.93295  2.94353
Cu 13.76251  9.92855  8.56079
Cu 13.76045 13.91219  8.52629
Sn 11.83517  7.99205 11.21589
Sn 11.80809 11.93576  5.55635
Sn 15.75327  7.97675  5.52755
Sn  7.89483 11.91998 11.20361
Se 15.75497 13.81020  7.11613
Se  7.88844 10.01897  7.12035
Se 15.74079  9.80582  1.50708
Se  7.88770 13.99638  1.49044
Se 11.83320 13.81451  1.47495
Se 11.80870 10.04204  1.46133
Se 11.83631  9.83571  7.08857
Se 11.83767 13.99148  7.08458
S  9.78219  7.96441  9.73108
S 13.82704  7.95392  9.72152
S  9.77647 11.92806  4.08509
S 13.82486 11.91111  4.08707
S 13.72871 15.88481  4.07721
S  9.91910 15.90040  4.10343
S 13.75215 11.93273  9.75265
S  9.88032 11.93712  9.70087
Zn 15.74953  7.95232 22.40365
Zn 15.74144 11.88613 16.75233
Zn 11.81278 15.89831 16.78426
Zn 11.81881 11.93721 22.35742
Cu  9.86046 13.95046 19.80598
Cu  9.84817  9.93645 19.82626
Cu  9.82455  9.93115 14.17821
Cu  9.85798 13.89979 14.17515
Cu 13.77629 13.91095 14.16637
Cu 13.75902  9.93295 14.18655
Cu 13.76251  9.92855 19.80381
Cu 13.76045 13.91219 19.76932
Sn 11.83517  7.99205 22.45891
Sn 11.80809 11.93576 16.79937
Sn 15.75327  7.97675 16.77057
Sn  7.89483 11.91998 22.44663
Se 15.75497 13.81020 18.35915
Se  7.88844 10.01897 18.36337
Se 15.74079  9.80582 12.75010
Se  7.88770 13.99638 12.73347
Se 11.83320 13.81451 12.71797
Se 11.80870 10.04204 12.70436
Se 11.83631  9.83571 18.33159
Se 11.83767 13.99148 18.32760
S  9.78219  7.96441 20.97410
S 13.82704  7.95392 20.96454
S  9.77647 11.92806 15.32811
S 13.82486 11.91111 15.33009
S 13.72871 15.88481 15.32023
S  9.91910 15.90040 15.34645
S 13.75215 11.93273 20.99568
S  9.88032 11.93712 20.94390
